50
100
99
96
94
94
90
90
90
90
87
86
85
85
84
84
84
84
84
83
81
81
79
71
71
70
65
65
65
63
62
59
51
51
50
49
49
49
47
45
44
43
41
35
35
33
31
27
23
23
22
22
